NAME : explosion
TYPE : TSP
DIMENSION : 50
EDGE_WEIGHT_TYPE : EUC_2D
NODE_COORD_SECTION
1 440577 483868
2 556264 462206
3 595640 84744
4 539312 432752
5 454651 777315
6 936643 866641
7 502079 87976
8 558662 997846
9 517660 567215
10 437624 294583
11 411637 71319
12 776633 183895
13 322675 170224
14 644188 110434
15 141626 242688
16 459876 268206
17 907754 271992
18 402942 671174
19 715709 234998
20 641618 296822
21 436339 912702
22 455653 212581
23 567027 100848
24 413575 132307
25 601421 162920
26 379040 256465
27 269280 708703
28 8003 54790
29 15525 383619
30 276467 414526
31 655370 198209
32 483820 314407
33 327958 97361
34 563543 243486
35 853624 295589
36 632787 31450
37 900971 753014
38 812273 47156
39 685926 536743
40 302576 877694
41 529426 718781
42 829923 102697
43 884452 521705
44 147910 139738
45 952967 663425
46 266592 98703
47 554754 25097
48 477149 669026
49 821008 127582
50 691798 1314
EOF
